experiment/data/lkh-res/Vrp-Set-Li-n721/Vrp-Set-Li-n721-lkh/0.lkh1.tour
NAME : 0.2172259.tour
COMMENT : Length = 2172259
COMMENT : Found by LKH-3 [Keld Helsgaun] Tue Apr  9 02:26:47 2024
TYPE : TOUR
DIMENSION : 730
TOUR_SECTION
1
25
26
66
65
105
106
146
145
144
143
142
182
183
184
224
264
304
344
384
424
464
504
544
465
505
545
585
625
665
705
584
624
664
704
703
663
623
583
543
503
463
423
383
343
303
263
223
222
262
302
342
382
422
462
502
542
582
622
662
702
701
661
621
581
541
501
461
421
381
341
301
261
221
181
141
101
102
103
104
64
24
730
14
54
53
52
92
93
94
134
133
132
172
212
252
292
332
372
412
452
492
532
572
612
652
692
691
651
611
571
531
491
451
411
371
331
291
251
211
210
250
290
330
370
410
450
490
530
570
610
650
690
689
649
609
569
529
489
449
409
369
329
289
249
209
169
170
171
131
130
90
91
51
50
10
11
12
13
724
20
19
59
99
98
138
139
179
178
177
217
257
297
337
377
417
457
497
537
577
617
657
697
698
658
618
578
538
498
458
418
378
338
298
258
218
219
259
299
339
379
419
459
499
539
579
619
659
699
700
660
620
580
540
500
460
420
380
340
300
260
220
180
140
100
60
61
62
63
23
22
21
728
36
76
116
117
157
156
196
197
198
238
278
318
358
398
438
478
518
558
598
638
678
718
597
637
677
717
716
676
636
596
556
516
476
557
517
477
437
397
357
317
277
237
236
276
316
356
396
436
395
435
475
515
555
595
635
675
715
714
674
634
594
554
514
474
434
394
354
314
355
315
275
235
195
155
115
75
35
34
726
31
32
33
73
74
114
113
153
154
194
193
233
234
274
273
313
353
393
433
473
513
553
593
633
673
713
712
672
632
592
552
512
472
432
392
352
312
272
232
231
271
311
351
391
431
471
511
551
591
631
671
711
710
670
630
590
550
510
470
430
390
350
310
270
230
190
191
192
152
151
150
110
111
112
72
71
70
30
727
4
44
43
83
84
124
164
204
244
284
324
364
404
444
484
524
564
604
644
684
683
643
603
563
523
483
443
403
363
323
283
243
203
163
123
122
161
121
82
42
81
80
40
41
2
3
729
29
69
109
149
189
188
228
229
269
309
349
389
429
469
509
549
589
629
669
709
708
668
628
588
548
508
468
428
388
348
308
268
267
227
226
266
306
346
307
347
387
427
467
507
547
587
627
667
707
706
666
626
586
546
506
466
426
386
425
385
345
305
265
225
185
186
187
147
148
108
107
67
68
28
27
722
8
9
49
89
129
128
127
126
166
167
168
208
248
288
328
368
408
448
488
528
568
608
648
688
687
647
607
567
527
487
447
407
367
327
287
247
207
206
246
286
326
366
406
446
486
526
566
606
646
686
685
645
605
565
525
485
445
405
365
325
285
245
205
165
125
85
86
87
88
48
47
46
45
5
6
7
725
16
15
55
95
135
175
174
173
213
253
293
333
373
413
453
493
533
573
613
653
693
694
654
614
574
534
494
454
414
374
334
294
254
214
215
255
295
335
375
415
455
495
535
575
615
655
695
696
656
616
576
536
496
456
416
376
336
296
256
216
176
136
137
97
96
56
57
58
18
17
723
38
39
79
119
120
160
200
201
162
202
242
282
322
362
402
442
482
522
562
602
642
682
721
681
641
601
561
521
481
441
401
361
321
281
241
240
280
320
360
400
440
480
520
560
600
640
680
720
719
679
639
599
559
519
479
439
399
359
319
279
239
199
159
158
118
78
77
37
-1
EOF
